% Auto-generated by scripts/generate_dzn.py
% problem_type   = shift_scheduling
% instance       = shift_scheduling_0
% source_json    = instances_json/0_low_blowup/shift_scheduling_0.json
% blowup         = 1.6896551724137931
% representation = NFA

mode = 1;

sequence_length = 14;
n_constraints = 2;
Q = 31;
S = 4;
q0 = [1, 1];
F = [{27, 28, 29, 30, 31}, {23, 24, 25, 26, 27}];
d_dfa = array3d(1..2, 1..31, 1..4, [
  % k = 1
    0, 0, 0, 0,
    0, 0, 0, 0,
    0, 0, 0, 0,
    0, 0, 0, 0,
    0, 0, 0, 0,
    0, 0, 0, 0,
    0, 0, 0, 0,
    0, 0, 0, 0,
    0, 0, 0, 0,
    0, 0, 0, 0,
    0, 0, 0, 0,
    0, 0, 0, 0,
    0, 0, 0, 0,
    0, 0, 0, 0,
    0, 0, 0, 0,
    0, 0, 0, 0,
    0, 0, 0, 0,
    0, 0, 0, 0,
    0, 0, 0, 0,
    0, 0, 0, 0,
    0, 0, 0, 0,
    0, 0, 0, 0,
    0, 0, 0, 0,
    0, 0, 0, 0,
    0, 0, 0, 0,
    0, 0, 0, 0,
    0, 0, 0, 0,
    0, 0, 0, 0,
    0, 0, 0, 0,
    0, 0, 0, 0,
    0, 0, 0, 0,

  % k = 2
    0, 0, 0, 0,
    0, 0, 0, 0,
    0, 0, 0, 0,
    0, 0, 0, 0,
    0, 0, 0, 0,
    0, 0, 0, 0,
    0, 0, 0, 0,
    0, 0, 0, 0,
    0, 0, 0, 0,
    0, 0, 0, 0,
    0, 0, 0, 0,
    0, 0, 0, 0,
    0, 0, 0, 0,
    0, 0, 0, 0,
    0, 0, 0, 0,
    0, 0, 0, 0,
    0, 0, 0, 0,
    0, 0, 0, 0,
    0, 0, 0, 0,
    0, 0, 0, 0,
    0, 0, 0, 0,
    0, 0, 0, 0,
    0, 0, 0, 0,
    0, 0, 0, 0,
    0, 0, 0, 0,
    0, 0, 0, 0,
    0, 0, 0, 0,
    0, 0, 0, 0,
    0, 0, 0, 0,
    0, 0, 0, 0,
    0, 0, 0, 0
]);
d_nfa = array3d(1..2, 1..31, 1..4, [
  % k = 1
    {2}, {3, 6}, {4}, {5},
    {2}, {3, 6}, {4}, {5},
    {2}, {3, 6}, {4}, {5},
    {2}, {3, 6}, {4}, {5},
    {2}, {3, 6}, {4}, {5},
    {7}, {8}, {9}, {10},
    {11}, {12}, {13}, {14},
    {11}, {12}, {13}, {14},
    {11}, {12}, {13}, {14},
    {11}, {12}, {13}, {14},
    {15}, {16}, {17}, {18},
    {15}, {16}, {17}, {18},
    {15}, {16}, {17}, {18},
    {15}, {16}, {17}, {18},
    {19}, {20}, {21}, {22},
    {19}, {20}, {21}, {22},
    {19}, {20}, {21}, {22},
    {19}, {20}, {21}, {22},
    {23}, {24}, {25}, {26},
    {23}, {24}, {25}, {26},
    {23}, {24}, {25}, {26},
    {23}, {24}, {25}, {26},
    {}, {}, {}, {27},
    {}, {}, {}, {27},
    {}, {}, {}, {27},
    {}, {}, {}, {27},
    {28}, {29}, {30}, {31},
    {28}, {29}, {30}, {31},
    {28}, {29}, {30}, {31},
    {28}, {29}, {30}, {31},
    {28}, {29}, {30}, {31},

  % k = 2
    {2}, {3}, {4, 6}, {5},
    {2}, {3}, {4, 6}, {5},
    {2}, {3}, {4, 6}, {5},
    {2}, {3}, {4, 6}, {5},
    {2}, {3}, {4, 6}, {5},
    {7}, {8}, {9}, {10},
    {11}, {12}, {13}, {14},
    {11}, {12}, {13}, {14},
    {11}, {12}, {13}, {14},
    {11}, {12}, {13}, {14},
    {15}, {16}, {17}, {18},
    {15}, {16}, {17}, {18},
    {15}, {16}, {17}, {18},
    {15}, {16}, {17}, {18},
    {19}, {20}, {21}, {22},
    {19}, {20}, {21}, {22},
    {19}, {20}, {21}, {22},
    {19}, {20}, {21}, {22},
    {}, {}, {}, {23},
    {}, {}, {}, {23},
    {}, {}, {}, {23},
    {}, {}, {}, {23},
    {24}, {25}, {26}, {27},
    {24}, {25}, {26}, {27},
    {24}, {25}, {26}, {27},
    {24}, {25}, {26}, {27},
    {24}, {25}, {26}, {27},
    {}, {}, {}, {},
    {}, {}, {}, {},
    {}, {}, {}, {},
    {}, {}, {}, {}
]);
